instances/generated/generated6.atsp
NAME:generated6.atsp
TYPE:ATSP
COMMENT:generatedFromCode
DIMENSION:6
EDGE_WEIGHT_TYPE:EXPLICIT
EDGE_WEIGHT_FORMAT:FULL_MATRIX
EDGE_WEIGHT_SECTION
0 243 400 265 173 420 
70 0 401 87 456 22 
495 12 0 162 58 265 
111 433 308 0 285 471 
8 483 191 190 0 390 
381 340 109 427 4 0 
EOF