instances/generated/generated6.tsp
NAME:generated6.tsp
TYPE:TSP
COMMENT:generatedFromCode
DIMENSION:6
EDGE_WEIGHT_TYPE:EXPLICIT
EDGE_WEIGHT_FORMAT:FULL_MATRIX
EDGE_WEIGHT_SECTION
0 131 62 447 159 271 
131 0 294 103 341 264 
62 294 0 405 290 476 
447 103 405 0 415 466 
159 341 290 415 0 202 
271 264 476 466 202 0 
EOF